Features/ForMiniZinc/benchmark_puzzles/benchmarks5x5/70/puzzle8.dzn
S = 5;
start = [|0,0,13,0,14,0,0,23,0,0,0,0,0,7,0,0,0,15,0,0,24,0,0,9,10|
17,9,3,22,0,0,0,0,0,0,0,0,0,0,24,7,12,0,0,25,0,0,0,0,0|
0,0,0,6,0,0,22,0,0,24,0,3,0,8,0,0,0,17,2,0,0,0,0,18,1|
0,0,0,8,0,0,0,16,1,0,25,0,0,21,0,0,0,0,0,0,0,0,0,0,6|
0,15,0,0,0,0,10,2,0,0,0,0,17,0,0,0,0,0,0,0,8,0,0,0,0|
3,12,0,0,0,0,0,25,19,0,0,1,6,0,0,0,0,7,0,0,0,0,16,0,22|
0,0,0,10,0,0,0,0,0,0,0,0,0,0,0,0,0,0,0,0,0,6,0,0,0|
0,0,0,0,13,0,0,0,24,0,0,0,0,0,0,0,23,4,0,9,0,0,0,0,0|
0,0,0,0,0,0,0,0,0,0,0,0,0,0,0,0,6,1,0,0,0,0,0,0,0|
0,0,0,0,0,3,12,10,0,0,0,5,0,0,17,20,21,0,0,0,7,0,0,0,18|
0,0,0,23,0,0,0,8,12,0,24,19,0,9,0,1,0,11,0,14,6,0,5,0,0|
0,0,0,0,0,2,0,0,0,0,5,0,0,0,21,0,0,24,0,0,13,0,0,3,0|
0,0,0,0,0,0,0,0,0,0,0,16,7,3,0,0,0,0,20,0,0,0,0,0,19|
25,19,0,0,16,0,0,0,13,0,0,17,0,0,22,9,0,21,0,5,0,23,0,4,12|
0,0,12,0,0,0,0,0,14,0,0,0,0,0,0,0,0,0,0,0,11,0,24,1,8|
0,0,0,0,20,0,19,12,0,0,0,13,0,0,23,0,0,0,0,0,0,22,0,0,0|
9,0,0,0,18,24,0,0,0,0,1,0,0,4,0,0,0,0,25,0,0,3,0,0,0|
0,11,15,0,12,6,0,0,0,22,0,0,8,0,9,0,0,20,0,16,0,13,23,0,0|
0,7,0,0,0,0,0,18,0,0,19,0,15,0,0,0,0,0,0,0,0,0,0,0,25|
0,0,0,0,3,0,11,14,0,0,17,0,0,5,0,15,22,0,4,21,19,0,0,0,0|
23,10,0,0,8,19,2,0,0,0,0,0,18,22,0,0,4,0,1,0,0,0,0,15,0|
0,18,0,9,0,0,0,0,0,14,0,0,0,0,12,2,0,0,0,23,0,11,0,0,0|
0,4,0,14,2,13,0,0,0,12,9,10,0,0,0,0,0,0,11,0,0,0,0,0,0|
0,0,24,0,0,0,0,20,23,0,0,0,0,0,0,0,19,12,0,0,1,10,0,0,0|
0,0,0,12,25,0,0,0,0,0,0,23,0,0,15,5,20,0,0,13,0,0,4,0,16|];